c preprocessed version of HallJankoGraph, 100 vertices, 1800 edges
p td 100 1800
0 2
0 3
0 8
0 10
0 13
0 14
0 19
0 27
0 30
0 32
0 34
0 39
0 41
0 43
0 45
0 46
0 47
0 48
0 49
0 50
0 51
0 55
0 57
0 58
0 62
0 65
0 67
0 69
0 76
0 77
0 79
0 82
0 83
0 86
0 91
0 92
1 3
1 7
1 11
1 12
1 16
1 23
1 24
1 25
1 26
1 29
1 31
1 33
1 36
1 39
1 44
1 47
1 49
1 50
1 52
1 55
1 56
1 58
1 60
1 61
1 66
1 67
1 69
1 72
1 74
1 77
1 79
1 84
1 86
1 90
1 95
1 97
2 3
2 4
2 6
2 13
2 19
2 20
2 24
2 25
2 27
2 29
2 30
2 32
2 37
2 38
2 51
2 53
2 55
2 57
2 61
2 62
2 65
2 66
2 68
2 70
2 71
2 72
2 75
2 79
2 85
2 86
2 90
2 91
2 93
3 6
3 8
3 15
3 22
3 32
3 33
3 35
3 38
3 40
3 41
3 47
3 49
3 52
3 53
3 55
3 62
3 66
3 69
3 70
3 72
3 76
3 79
3 84
3 90
3 93
3 96
3 98
4 7
4 15
4 16
4 19
4 20
4 21
4 22
4 27
4 28
4 29
4 30
4 32
4 38
4 40
4 48
4 49
4 52
4 54
4 62
4 63
4 71
4 72
4 73
4 74
4 77
4 81
4 82
4 83
4 86
4 87
4 90
4 93
4 95
4 97
5 8
5 9
5 13
5 14
5 15
5 18
5 21
5 25
5 29
5 35
5 41
5 42
5 43
5 46
5 55
5 59
5 61
5 64
5 65
5 66
5 68
5 72
5 74
5 75
5 76
5 77
5 80
5 81
5 82
5 86
5 90
5 95
5 96
5 97
5 98
6 10
6 13
6 16
6 18
6 19
6 20
6 25
6 33
6 36
6 40
6 41
6 43
6 47
6 53
6 54
6 59
6 62
6 71
6 74
6 75
6 79
6 81
6 84
6 85
6 88
6 90
6 91
6 96
6 98
6 99
7 9
7 13
7 16
7 20
7 22
7 24
7 27
7 29
7 32
7 33
7 36
7 41
7 42
7 43
7 48
7 49
7 50
7 53
7 54
7 57
7 58
7 63
7 64
7 71
7 72
7 80
7 84
7 88
7 92
7 95
7 97
8 10
8 14
8 15
8 16
8 18
8 24
8 25
8 27
8 28
8 35
8 40
8 41
8 42
8 46
8 48
8 51
8 55
8 63
8 64
8 79
8 82
8 84
8 86
8 87
8 90
8 92
8 93
8 94
9 14
9 16
9 22
9 24
9 26
9 32
9 35
9 36
9 37
9 38
9 39
9 40
9 42
9 43
9 46
9 49
9 51
9 52
9 57
9 64
9 68
9 72
9 75
9 77
9 80
9 85
9 88
9 90
9 91
9 95
9 96
9 99
10 13
10 20
10 25
10 28
10 29
10 30
10 31
10 37
10 39
10 40
10 41
10 42
10 44
10 50
10 51
10 52
10 54
10 59
10 62
10 64
10 79
10 80
10 82
10 83
10 87
10 91
10 95
10 99
11 16
11 17
11 19
11 24
11 31
11 35
11 37
11 39
11 40
11 42
11 46
11 47
11 48
11 50
11 51
11 52
11 59
11 61
11 62
11 64
11 65
11 66
11 69
11 70
11 71
11 73
11 74
11 76
11 81
11 84
11 92
11 97
11 99
12 3
12 6
12 8
12 10
12 14
12 15
12 16
12 18
12 23
12 25
12 26
12 30
12 34
12 36
12 38
12 42
12 44
12 45
12 48
12 50
12 52
12 53
12 55
12 56
12 62
12 67
12 68
12 71
12 73
12 74
12 80
12 85
12 87
12 97
12 98
13 20
13 25
13 27
13 29
13 31
13 32
13 36
13 37
13 41
13 43
13 46
13 47
13 50
13 55
13 58
13 60
13 64
13 65
13 70
13 71
13 72
13 73
13 75
13 80
13 81
13 82
13 84
13 87
13 98
14 16
14 18
14 19
14 22
14 24
14 26
14 40
14 43
14 44
14 51
14 55
14 57
14 58
14 60
14 62
14 63
14 65
14 66
14 68
14 71
14 74
14 77
14 80
14 81
14 82
14 94
15 17
15 21
15 32
15 33
15 36
15 37
15 38
15 44
15 46
15 47
15 48
15 51
15 54
15 62
15 63
15 68
15 69
15 72
15 74
15 75
15 76
15 80
15 82
15 87
15 90
15 92
15 93
15 97
15 98
16 17
16 19
16 20
16 24
16 36
16 38
16 40
16 41
16 42
16 43
16 46
16 48
16 52
16 60
16 63
16 65
16 71
16 74
16 77
16 79
16 84
16 85
16 86
16 87
16 90
16 99
17 24
17 27
17 28
17 30
17 31
17 37
17 38
17 41
17 43
17 44
17 48
17 57
17 58
17 59
17 60
17 63
17 66
17 69
17 70
17 73
17 74
17 75
17 76
17 85
17 87
17 90
17 91
17 92
17 96
17 98
17 99
18 19
18 21
18 25
18 26
18 27
18 31
18 35
18 40
18 41
18 43
18 48
18 52
18 53
18 57
18 58
18 61
18 68
18 73
18 75
18 79
18 81
18 88
18 92
18 93
18 94
18 95
18 97
18 98
19 21
19 24
19 26
19 27
19 36
19 39
19 41
19 47
19 48
19 52
19 54
19 59
19 61
19 62
19 63
19 65
19 68
19 70
19 72
19 77
19 79
19 81
19 83
19 85
19 92
20 21
20 24
20 29
20 30
20 32
20 33
20 35
20 40
20 42
20 44
20 46
20 51
20 53
20 54
20 58
20 60
20 64
20 65
20 66
20 74
20 79
20 81
20 83
20 85
20 87
20 88
20 93
20 98
21 22
21 29
21 38
21 39
21 44
21 46
21 47
21 48
21 50
21 54
21 64
21 65
21 68
21 69
21 70
21 73
21 77
21 79
21 81
21 85
21 86
21 88
21 93
21 94
21 95
21 96
21 98
22 28
22 30
22 31
22 37
22 38
22 40
22 47
22 49
22 50
22 53
22 55
22 58
22 59
22 62
22 63
22 64
22 68
22 71
22 72
22 77
22 81
22 84
22 88
22 93
22 94
22 96
22 99
23 6
23 8
23 10
23 15
23 18
23 21
23 24
23 26
23 31
23 33
23 34
23 37
23 38
23 44
23 47
23 50
23 54
23 57
23 64
23 71
23 75
23 79
23 81
23 82
23 83
23 84
23 85
23 86
23 90
23 91
23 92
23 94
23 95
23 97
24 26
24 27
24 35
24 37
24 39
24 44
24 51
24 54
24 55
24 57
24 58
24 64
24 66
24 71
24 72
24 79
24 81
24 85
24 87
24 90
24 92
24 96
25 27
25 28
25 29
25 30
25 31
25 36
25 38
25 39
25 46
25 51
25 55
25 58
25 59
25 61
25 63
25 68
25 73
25 74
25 79
25 80
25 84
25 88
25 90
25 95
25 96
26 27
26 30
26 35
26 36
26 37
26 47
26 49
26 52
26 54
26 58
26 60
26 61
26 62
26 66
26 70
26 75
26 77
26 80
26 82
26 83
26 85
26 87
26 88
26 94
26 95
26 98
27 30
27 36
27 39
27 41
27 48
27 49
27 53
27 57
27 58
27 59
27 63
27 64
27 69
27 70
27 73
27 75
27 81
27 82
27 87
27 90
27 93
27 95
28 29
28 30
28 31
28 35
28 36
28 40
28 48
28 50
28 54
28 55
28 60
28 61
28 63
28 66
28 72
28 73
28 83
28 86
28 87
28 88
28 90
28 91
28 92
28 94
28 96
28 99
29 35
29 42
29 43
29 44
29 47
29 50
29 52
29 57
29 60
29 62
29 63
29 66
29 68
29 70
29 72
29 73
29 74
29 79
29 82
29 86
29 88
29 91
29 95
30 37
30 38
30 46
30 48
30 53
30 55
30 58
30 59
30 61
30 62
30 64
30 66
30 74
30 76
30 77
30 83
30 85
30 87
30 88
30 91
30 95
30 97
31 32
31 37
31 38
31 40
31 41
31 44
31 49
31 50
31 51
31 52
31 58
31 59
31 60
31 61
31 65
31 68
31 72
31 73
31 75
31 81
31 83
31 84
31 90
31 92
31 94
32 33
32 35
32 38
32 40
32 44
32 46
32 48
32 49
32 51
32 57
32 61
32 72
32 73
32 75
32 77
32 80
32 82
32 83
32 84
32 85
32 92
32 98
33 36
33 39
33 43
33 44
33 46
33 49
33 53
33 54
33 57
33 59
33 60
33 61
33 63
33 64
33 66
33 74
33 75
33 76
33 79
33 83
33 84
33 93
33 94
33 97
34 3
34 8
34 9
34 14
34 22
34 26
34 27
34 28
34 30
34 33
34 35
34 36
34 38
34 42
34 45
34 46
34 47
34 49
34 50
34 53
34 57
34 63
34 64
34 65
34 66
34 70
34 73
34 74
34 81
34 83
34 90
34 91
34 94
35 40
35 42
35 46
35 47
35 52
35 53
35 57
35 61
35 66
35 72
35 73
35 76
35 79
35 81
35 82
35 83
35 87
35 88
35 92
35 96
35 98
35 99
36 39
36 46
36 47
36 48
36 50
36 53
36 54
36 60
36 61
36 63
36 65
36 68
36 69
36 72
36 75
36 80
36 87
36 88
36 90
36 99
37 38
37 43
37 46
37 47
37 51
37 52
37 58
37 61
37 62
37 64
37 70
37 71
37 72
37 75
37 79
37 80
37 87
37 91
37 93
37 94
37 97
37 99
38 46
38 52
38 57
38 63
38 65
38 68
38 70
38 71
38 73
38 76
38 79
38 80
38 83
38 84
38 85
38 90
38 95
38 96
39 44
39 46
39 49
39 50
39 51
39 52
39 54
39 55
39 57
39 59
39 64
39 68
39 69
39 73
39 76
39 77
39 79
39 87
39 93
39 95
39 96
39 99
40 48
40 51
40 52
40 60
40 62
40 64
40 66
40 69
40 75
40 81
40 82
40 84
40 88
40 90
40 93
40 95
40 99
41 42
41 43
41 49
41 52
41 53
41 54
41 59
41 65
41 70
41 72
41 76
41 77
41 84
41 87
41 90
41 91
41 92
41 94
41 95
41 98
42 49
42 50
42 51
42 52
42 53
42 59
42 63
42 64
42 65
42 68
42 70
42 74
42 80
42 83
42 85
42 86
42 91
42 92
42 93
42 97
42 98
42 99
43 46
43 48
43 49
43 52
43 57
43 58
43 60
43 62
43 71
43 73
43 74
43 75
43 76
43 79
43 86
43 88
43 91
43 94
43 96
43 97
44 51
44 53
44 57
44 59
44 60
44 68
44 69
44 72
44 73
44 74
44 77
44 81
44 82
44 85
44 87
44 91
44 94
45 3
45 6
45 9
45 10
45 13
45 14
45 19
45 28
45 32
45 33
45 36
45 39
45 40
45 43
45 44
45 48
45 52
45 55
45 60
45 64
45 69
45 70
45 72
45 73
45 78
45 80
45 81
45 83
45 85
45 89
45 91
45 96
45 97
46 47
46 48
46 51
46 61
46 64
46 65
46 73
46 74
46 76
46 77
46 79
46 84
46 87
46 88
46 94
47 50
47 58
47 62
47 63
47 69
47 70
47 72
47 74
47 77
47 79
47 81
47 82
47 84
47 88
47 91
47 92
47 98
47 99
48 50
48 61
48 62
48 64
48 69
48 73
48 75
48 85
48 86
48 88
48 92
48 97
49 50
49 51
49 52
49 54
49 58
49 59
49 62
49 73
49 74
49 75
49 77
49 83
49 86
49 90
49 93
49 94
49 96
49 98
50 54
50 55
50 57
50 62
50 64
50 65
50 66
50 68
50 71
50 73
50 75
50 86
50 92
50 98
50 99
51 54
51 58
51 62
51 65
51 68
51 69
51 74
51 80
51 88
51 90
51 91
51 92
51 93
51 94
52 60
52 62
52 68
52 70
52 72
52 73
52 76
52 79
52 83
52 87
52 93
52 95
52 97
53 57
53 59
53 61
53 65
53 68
53 69
53 71
53 72
53 76
53 81
53 87
53 88
53 91
53 93
53 94
53 97
53 99
54 62
54 65
54 66
54 71
54 76
54 80
54 83
54 87
54 88
54 90
54 92
54 94
54 95
54 96
54 98
55 58
55 60
55 64
55 66
55 68
55 71
55 72
55 76
55 77
55 84
55 85
55 86
55 87
55 92
55 93
55 96
55 97
55 98
56 2
56 3
56 7
56 8
56 11
56 24
56 25
56 26
56 27
56 29
56 32
56 35
56 42
56 44
56 48
56 49
56 51
56 53
56 59
56 61
56 62
56 69
56 70
56 71
56 73
56 78
56 80
56 82
56 84
56 85
56 86
56 88
56 94
56 96
57 63
57 66
57 68
57 71
57 73
57 75
57 76
57 79
57 82
57 91
57 92
57 95
57 99
58 60
58 63
58 69
58 74
58 79
58 80
58 81
58 83
58 88
58 92
58 93
58 96
58 97
58 98
59 61
59 62
59 63
59 64
59 68
59 74
59 75
59 76
59 77
59 81
59 82
59 83
59 84
59 85
59 96
59 99
60 63
60 65
60 66
60 68
60 69
60 70
60 75
60 76
60 82
60 83
60 84
60 85
60 86
60 87
60 88
60 93
60 94
61 65
61 66
61 72
61 75
61 77
61 79
61 80
61 83
61 86
61 94
61 97
61 99
62 66
62 68
62 71
62 74
62 75
62 76
62 82
62 88
63 68
63 70
63 74
63 79
63 80
63 82
63 83
63 84
63 92
63 93
63 99
64 66
64 70
64 75
64 81
64 84
64 85
64 93
64 95
64 97
65 66
65 68
65 69
65 70
65 71
65 76
65 80
65 81
65 83
65 86
65 90
65 94
66 70
66 74
66 75
66 76
66 90
66 95
66 98
67 3
67 7
67 10
67 14
67 16
67 17
67 18
67 20
67 21
67 22
67 30
67 31
67 32
67 38
67 40
67 41
67 44
67 48
67 50
67 53
67 57
67 58
67 61
67 65
67 66
67 69
67 77
67 78
67 79
67 80
67 95
67 98
67 99
68 72
68 75
68 76
68 85
68 88
68 92
68 93
69 70
69 76
69 80
69 81
69 82
69 86
69 88
69 90
69 91
69 93
69 95
69 96
69 97
69 99
70 73
70 80
70 84
70 85
70 91
70 93
70 94
70 95
70 98
71 73
71 76
71 80
71 81
71 82
71 84
71 86
71 87
71 94
71 96
71 97
71 99
72 77
72 81
72 87
72 90
72 91
72 92
72 97
73 74
73 81
73 87
73 94
73 96
73 98
74 77
74 81
74 90
74 91
74 97
74 98
75 82
75 85
75 86
75 90
75 93
75 98
75 99
76 82
76 83
76 84
76 87
76 88
76 92
76 95
76 96
76 97
77 82
77 84
77 85
77 86
77 87
77 91
77 94
77 95
77 98
77 99
78 3
78 5
78 7
78 8
78 10
78 14
78 15
78 17
78 19
78 21
78 22
78 24
78 28
78 29
78 33
78 37
78 41
78 43
78 44
78 48
78 54
78 59
78 61
78 62
78 63
78 64
78 66
78 70
78 72
78 79
78 80
78 94
78 96
79 83
79 86
79 93
79 96
79 99
80 82
80 83
80 95
80 96
80 97
80 98
80 99
81 82
81 83
81 90
81 96
81 97
82 83
82 84
82 86
82 87
82 95
82 99
83 85
83 86
83 92
83 96
83 97
84 85
84 88
84 92
84 94
84 95
85 86
85 88
85 91
85 92
85 96
85 98
86 90
86 91
86 93
86 94
86 96
86 97
86 99
87 93
87 94
87 98
87 99
88 91
88 92
88 94
88 95
88 96
89 2
89 4
89 6
89 11
89 14
89 18
89 19
89 25
89 28
89 32
89 33
89 39
89 40
89 51
89 54
89 55
89 57
89 61
89 63
89 66
89 70
89 71
89 73
89 74
89 77
89 80
89 84
89 91
89 92
89 93
89 94
89 95
89 97
89 98
89 99
90 91
90 95
90 96
91 92
91 94
91 95
91 97
91 99
92 97
92 98
93 94
93 97
93 98
93 99
95 97
96 98
96 99
98 99
